Geographic Exponential Decay
40 153 231 251 105 302 186 0 143 167 223 67 32 256 25 225 187 218 262 188 159 39 308 83 306 164 198 27 166 130 316 97 69 177 4 232 195 92 73 35 185
p edge 320 329
e 0 71 100.0
e 0 254 90.0
e 0 192 68.0
e 0 52 77.0
e 0 289 19.0
e 1 291 1.0
e 1 0 40.0
e 2 49 1.0
e 2 1 5.0
e 3 247 4.0
e 3 2 5.0
e 4 201 93.0
e 4 269 45.0
e 4 256 87.0
e 4 168 12.0
e 4 309 39.0
e 4 3 58.0
e 5 224 1.0
e 5 4 51.0
e 6 53 1.0
e 6 5 1.0
e 7 317 4.0
e 8 125 1.0
e 8 6 2.0
e 9 160 7.0
e 9 8 11.0
e 10 11 4.0
e 10 9 11.0
e 12 278 1.0
e 12 10 6.0
e 13 138 5.0
e 13 12 1.0
e 14 73 25.0
e 15 274 12.0
e 15 13 4.0
e 16 104 1.0
e 16 15 1.0
e 17 204 11.0
e 17 16 1.0
e 18 205 3.0
e 18 17 3.0
e 19 162 6.0
e 19 18 1.0
e 20 155 5.0
e 20 19 2.0
e 21 77 3.0
e 21 20 1.0
e 22 234 1.0
e 22 21 2.0
e 23 60 1.0
e 23 22 1.0
e 24 253 2.0
e 24 23 2.0
e 25 258 8.0
e 25 57 1.0
e 25 38 9.0
e 25 148 36.0
e 25 276 55.0
e 25 24 66.0
e 26 203 19.0
e 26 89 7.0
e 26 25 40.0
e 27 28 17.0
e 27 72 17.0
e 27 184 22.0
e 27 193 73.0
e 27 305 60.0
e 29 50 4.0
e 29 26 23.0
e 30 197 5.0
e 30 29 1.0
e 31 232 70.0
e 32 177 58.0
e 32 130 60.0
e 32 135 71.0
e 32 140 55.0
e 32 63 57.0
e 33 34 1.0
e 33 30 2.0
e 35 36 82.0
e 35 107 29.0
e 35 223 43.0
e 35 233 44.0
e 35 185 81.0
e 37 277 3.0
e 37 33 1.0
e 39 99 9.0
e 39 211 38.0
e 39 166 60.0
e 39 40 82.0
e 39 157 41.0
e 41 42 2.0
e 41 37 1.0
e 43 44 3.0
e 43 41 2.0
e 45 161 1.0
e 45 43 2.0
e 46 136 1.0
e 46 45 3.0
e 47 166 43.0
e 48 226 1.0
e 48 46 1.0
e 51 265 5.0
e 51 48 2.0
e 54 90 5.0
e 54 51 1.0
e 55 56 6.0
e 55 54 1.0
e 58 120 15.0
e 58 218 89.0
e 59 255 2.0
e 59 55 1.0
e 61 62 4.0
e 61 59 3.0
e 63 64 13.0
e 65 165 8.0
e 65 61 3.0
e 66 225 81.0
e 67 137 85.0
e 67 80 85.0
e 67 210 99.0
e 67 98 14.0
e 67 257 73.0
e 67 65 96.0
e 68 121 45.0
e 68 259 24.0
e 68 248 33.0
e 68 67 65.0
e 69 126 19.0
e 69 70 35.0
e 69 73 55.0
e 69 272 32.0
e 69 163 61.0
e 73 179 66.0
e 73 225 82.0
e 73 244 99.0
e 74 186 25.0
e 75 249 1.0
e 75 68 35.0
e 76 139 4.0
e 76 75 1.0
e 78 227 6.0
e 78 76 1.0
e 79 307 22.0
e 81 260 3.0
e 81 78 2.0
e 82 268 2.0
e 82 81 2.0
e 83 84 24.0
e 83 85 55.0
e 83 225 23.0
e 83 206 21.0
e 83 86 18.0
e 87 88 4.0
e 87 82 1.0
e 89 132 8.0
e 91 178 45.0
e 91 92 4.0
e 91 96 39.0
e 91 87 12.0
e 92 222 44.0
e 92 93 92.0
e 92 273 23.0
e 92 212 54.0
e 94 166 56.0
e 95 164 92.0
e 97 100 37.0
e 97 101 82.0
e 97 102 73.0
e 97 103 91.0
e 97 105 86.0
e 105 297 8.0
e 105 143 13.0
e 105 113 22.0
e 105 225 68.0
e 106 316 23.0
e 108 109 1.0
e 108 91 6.0
e 110 111 5.0
e 110 108 1.0
e 112 199 1.0
e 112 110 1.0
e 113 114 1.0
e 115 116 8.0
e 115 112 3.0
e 116 252 2.0
e 117 256 28.0
e 118 119 5.0
e 118 115 4.0
e 121 174 13.0
e 122 238 5.0
e 122 118 4.0
e 123 256 45.0
e 124 127 5.0
e 124 122 1.0
e 128 129 10.0
e 128 124 3.0
e 130 131 36.0
e 130 133 41.0
e 130 134 93.0
e 130 185 90.0
e 140 256 74.0
e 141 214 4.0
e 141 128 1.0
e 142 143 89.0
e 143 187 97.0
e 143 144 97.0
e 143 170 43.0
e 145 228 1.0
e 145 141 6.0
e 146 147 1.0
e 146 145 5.0
e 149 313 1.0
e 149 146 1.0
e 150 151 6.0
e 150 149 2.0
e 152 153 53.0
e 152 150 1.0
e 153 154 36.0
e 153 156 63.0
e 153 215 59.0
e 153 207 39.0
e 158 221 1.0
e 158 152 7.0
e 159 164 86.0
e 159 166 56.0
e 159 167 2.0
e 159 250 4.0
e 159 231 95.0
e 164 166 74.0
e 164 284 100.0
e 164 256 84.0
e 167 223 50.0
e 167 169 27.0
e 167 261 36.0
e 167 171 51.0
e 172 262 22.0
e 173 175 4.0
e 173 158 12.0
e 176 177 40.0
e 177 262 40.0
e 177 225 74.0
e 177 275 66.0
e 180 181 16.0
e 180 173 5.0
e 181 202 4.0
e 181 198 67.0
e 182 183 2.0
e 182 180 2.0
e 185 262 15.0
e 185 208 54.0
e 185 186 90.0
e 186 187 22.0
e 186 200 84.0
e 186 188 92.0
e 187 188 78.0
e 187 189 70.0
e 187 190 77.0
e 188 191 65.0
e 188 262 57.0
e 188 194 33.0
e 195 281 43.0
e 195 237 88.0
e 195 216 73.0
e 195 262 24.0
e 195 196 9.0
e 198 202 60.0
e 198 209 37.0
e 198 213 78.0
e 198 217 10.0
e 218 235 90.0
e 218 219 18.0
e 218 220 83.0
e 218 223 29.0
e 223 229 29.0
e 223 230 1.0
e 230 231 52.0
e 230 232 46.0
e 231 287 58.0
e 231 232 19.0
e 231 236 20.0
e 232 239 50.0
e 232 240 60.0
e 241 242 1.0
e 241 182 2.0
e 243 303 12.0
e 243 241 5.0
e 245 263 4.0
e 245 243 3.0
e 246 251 76.0
e 246 245 4.0
e 251 264 43.0
e 251 266 29.0
e 251 267 89.0
e 251 270 14.0
e 267 271 39.0
e 267 279 7.0
e 280 310 11.0
e 280 246 12.0
e 282 283 5.0
e 282 280 10.0
e 285 286 27.0
e 285 288 45.0
e 285 289 37.0
e 289 316 68.0
e 290 292 2.0
e 290 282 1.0
e 293 294 22.0
e 293 290 1.0
e 294 295 1.0
e 296 298 5.0
e 296 293 2.0
e 299 300 9.0
e 299 296 2.0
e 301 302 13.0
e 302 304 80.0
e 302 305 58.0
e 302 306 19.0
e 302 307 10.0
e 306 307 7.0
e 306 308 65.0
e 306 311 52.0
e 306 312 88.0
e 308 314 42.0
e 308 315 98.0
e 308 316 45.0
e 308 317 82.0
e 316 318 84.0
e 316 319 34.0
